Minimize
  - 22 y_1 - 29 y_2 - 52 y_3 - 22 y_4 - 53 y_5 - 20 y_6 - 40 y_7 - 59 y_8
   - 37 y_9 + 334 Constant
Subject To
 c_0: y_7 = 1
 c_1_0: y_0 >= 1
 c_1_1: y_1 + y_2 + y_4 + y_6 >= 1
 c_1_2: y_1 + y_2 + y_4 + y_6 >= 1
 c_1_3: y_3 + y_8 >= 1
 c_1_4: y_1 + y_2 + y_4 + y_6 >= 1
 c_1_5: y_5 >= 1
 c_1_6: y_1 + y_2 + y_4 + y_6 >= 1
 c_1_7: y_7 >= 1
 c_1_8: y_3 + y_8 >= 1
 c_1_9: y_9 >= 1
Bounds
 Constant = 1
Binaries
 y_0 y_1 y_2 y_3 y_4 y_5 y_6 y_7 y_8 y_9
End
